
(set-info :smt-lib-version 2.6)
(set-logic QF_SLIA)
(set-info :source |
Generated by: Denghang Hu,
Generated on: 20230329,
Application: Evaluate string solvers
Description: The instance consists of:
(1) a regular membership predicate from the real world
(2) a regular membership predicate to sanitize danger letters in javascript such as <,>,&,",'
(3) a lower bound for string length
Target solver: Ostrich, Z3str3, CVC5
|)
(set-info :license "https://creativecommons.org/licenses/by/4.0/")
(set-info :category "industrial")
(set-info :status unknown)
        ;test regex ^\n*[hH][tT]{2}[pP]\u{3a}\u{2f}\u{2f}[^\n]{400}
(declare-const X String)
(assert (str.in_re X (re.++ (str.to_re "") (re.++ (re.* (str.to_re "\u{0a}")) (re.++ (re.union (str.to_re "h") (str.to_re "H")) (re.++ ((_ re.loop 2 2) (re.union (str.to_re "t") (str.to_re "T"))) (re.++ (re.union (str.to_re "p") (str.to_re "P")) (re.++ (str.to_re "\u{3a}") (re.++ (str.to_re "\u{2f}") (re.++ (str.to_re "\u{2f}") ((_ re.loop 400 400) (re.diff re.allchar (str.to_re "\u{0a}")))))))))))))
; sanitize danger characters:  < > ' " &
(assert (not (str.in_re X (re.++ re.all (re.union (str.to_re "\u{3c}") (str.to_re "\u{3e}") (str.to_re "\u{27}") (str.to_re "\u{22}") (str.to_re "\u{26}")) re.all))))
(assert (< 50 (str.len X)))
(check-sat)
(get-model)(exit)